p edge 300 1500
e 1 58
e 1 58
e 1 122
e 1 147
e 1 271
e 2 121
e 2 136
e 2 206
e 2 256
e 2 298
e 3 37
e 3 58
e 3 116
e 3 119
e 3 121
e 4 18
e 4 51
e 4 73
e 4 179
e 4 256
e 5 32
e 5 46
e 5 177
e 5 218
e 5 252
e 6 50
e 6 65
e 6 97
e 6 107
e 6 241
e 7 11
e 7 16
e 7 181
e 7 218
e 7 290
e 8 11
e 8 34
e 8 75
e 8 158
e 8 176
e 9 34
e 9 49
e 9 144
e 9 238
e 9 248
e 10 4
e 10 31
e 10 120
e 10 199
e 10 222
e 11 86
e 11 113
e 11 156
e 11 174
e 11 256
e 12 6
e 12 93
e 12 104
e 12 150
e 12 181
e 13 9
e 13 32
e 13 110
e 13 148
e 13 195
e 14 50
e 14 156
e 14 190
e 14 252
e 14 292
e 15 19
e 15 150
e 15 152
e 15 224
e 15 293
e 16 4
e 16 104
e 16 119
e 16 247
e 16 278
e 17 47
e 17 89
e 17 90
e 17 119
e 17 225
e 18 17
e 18 36
e 18 44
e 18 103
e 18 251
e 19 9
e 19 24
e 19 37
e 19 209
e 19 276
e 20 81
e 20 89
e 20 110
e 20 186
e 20 192
e 21 5
e 21 198
e 21 217
e 21 241
e 21 275
e 22 23
e 22 48
e 22 106
e 22 168
e 22 299
e 23 69
e 23 70
e 23 173
e 23 174
e 23 213
e 24 56
e 24 74
e 24 151
e 24 171
e 24 216
e 25 127
e 25 170
e 25 174
e 25 218
e 25 219
e 26 72
e 26 99
e 26 173
e 26 235
e 26 243
e 27 7
e 27 18
e 27 99
e 27 209
e 27 250
e 28 117
e 28 137
e 28 152
e 28 178
e 28 187
e 29 94
e 29 137
e 29 173
e 29 198
e 29 220
e 30 14
e 30 55
e 30 187
e 30 242
e 30 256
e 31 168
e 31 180
e 31 193
e 31 226
e 31 252
e 32 70
e 32 102
e 32 138
e 32 197
e 32 248
e 33 19
e 33 21
e 33 90
e 33 118
e 33 121
e 34 42
e 34 75
e 34 115
e 34 133
e 34 189
e 35 2
e 35 14
e 35 153
e 35 247
e 35 283
e 36 31
e 36 115
e 36 128
e 36 221
e 36 287
e 37 57
e 37 176
e 37 179
e 37 258
e 37 296
e 38 3
e 38 114
e 38 189
e 38 252
e 38 277
e 39 58
e 39 119
e 39 167
e 39 182
e 39 240
e 40 5
e 40 54
e 40 188
e 40 196
e 40 283
e 41 58
e 41 178
e 41 195
e 41 200
e 41 292
e 42 99
e 42 101
e 42 135
e 42 176
e 42 229
e 43 5
e 43 134
e 43 158
e 43 233
e 43 248
e 44 2
e 44 35
e 44 131
e 44 187
e 44 287
e 45 151
e 45 234
e 45 263
e 45 273
e 45 296
e 46 17
e 46 117
e 46 236
e 46 247
e 46 256
e 47 33
e 47 57
e 47 74
e 47 169
e 47 204
e 48 8
e 48 9
e 48 37
e 48 79
e 48 296
e 49 3
e 49 51
e 49 53
e 49 152
e 49 255
e 50 4
e 50 142
e 50 227
e 50 275
e 50 275
e 51 8
e 51 57
e 51 136
e 51 266
e 51 274
e 52 12
e 52 57
e 52 95
e 52 189
e 52 205
e 53 8
e 53 190
e 53 204
e 53 254
e 53 259
e 54 27
e 54 98
e 54 123
e 54 178
e 54 275
e 55 53
e 55 101
e 55 179
e 55 179
e 55 237
e 56 61
e 56 186
e 56 226
e 56 279
e 56 291
e 57 68
e 57 174
e 57 182
e 57 209
e 57 288
e 58 102
e 58 185
e 58 195
e 58 235
e 58 266
e 59 38
e 59 119
e 59 214
e 59 244
e 59 260
e 60 31
e 60 75
e 60 95
e 60 146
e 60 272
e 61 17
e 61 36
e 61 69
e 61 105
e 61 194
e 62 79
e 62 158
e 62 179
e 62 262
e 62 291
e 63 7
e 63 14
e 63 44
e 63 88
e 63 109
e 64 46
e 64 111
e 64 156
e 64 223
e 64 292
e 65 34
e 65 183
e 65 209
e 65 225
e 65 299
e 66 104
e 66 117
e 66 152
e 66 161
e 66 205
e 67 23
e 67 77
e 67 100
e 67 161
e 67 194
e 68 39
e 68 44
e 68 130
e 68 149
e 68 165
e 69 58
e 69 76
e 69 143
e 69 165
e 69 222
e 70 75
e 70 101
e 70 152
e 70 162
e 70 202
e 71 13
e 71 50
e 71 51
e 71 175
e 71 196
e 72 26
e 72 29
e 72 58
e 72 143
e 72 218
e 73 54
e 73 194
e 73 194
e 73 260
e 73 263
e 74 45
e 74 77
e 74 158
e 74 175
e 74 205
e 75 51
e 75 56
e 75 104
e 75 119
e 75 268
e 76 89
e 76 132
e 76 237
e 76 272
e 76 284
e 77 134
e 77 153
e 77 227
e 77 242
e 77 257
e 78 1
e 78 42
e 78 89
e 78 108
e 78 237
e 79 15
e 79 39
e 79 105
e 79 120
e 79 230
e 80 116
e 80 124
e 80 126
e 80 139
e 80 233
e 81 17
e 81 76
e 81 204
e 81 232
e 81 254
e 82 114
e 82 141
e 82 160
e 82 232
e 82 285
e 83 31
e 83 181
e 83 191
e 83 199
e 83 215
e 84 14
e 84 31
e 84 55
e 84 130
e 84 203
e 85 26
e 85 65
e 85 270
e 85 272
e 85 282
e 86 1
e 86 53
e 86 80
e 86 122
e 86 130
e 87 91
e 87 120
e 87 136
e 87 141
e 87 282
e 88 34
e 88 106
e 88 259
e 88 266
e 88 298
e 89 122
e 89 168
e 89 235
e 89 281
e 89 289
e 90 11
e 90 121
e 90 148
e 90 165
e 90 167
e 91 16
e 91 93
e 91 114
e 91 117
e 91 129
e 92 70
e 92 147
e 92 159
e 92 170
e 92 283
e 93 61
e 93 103
e 93 155
e 93 180
e 93 234
e 94 62
e 94 112
e 94 201
e 94 224
e 94 286
e 95 43
e 95 87
e 95 129
e 95 258
e 95 283
e 96 22
e 96 32
e 96 148
e 96 172
e 96 172
e 97 8
e 97 12
e 97 145
e 97 160
e 97 184
e 98 7
e 98 28
e 98 120
e 98 226
e 98 246
e 99 39
e 99 43
e 99 66
e 99 135
e 99 241
e 100 86
e 100 111
e 100 128
e 100 249
e 100 256
e 101 34
e 101 59
e 101 96
e 101 217
e 101 241
e 102 2
e 102 4
e 102 82
e 102 197
e 102 262
e 103 48
e 103 96
e 103 160
e 103 232
e 103 296
e 104 15
e 104 17
e 104 79
e 104 99
e 104 219
e 105 76
e 105 130
e 105 187
e 105 188
e 105 262
e 106 2
e 106 44
e 106 59
e 106 81
e 106 208
e 107 10
e 107 245
e 107 246
e 107 284
e 107 298
e 108 10
e 108 125
e 108 146
e 108 200
e 108 265
e 109 65
e 109 75
e 109 96
e 109 194
e 109 242
e 110 36
e 110 44
e 110 66
e 110 214
e 110 271
e 111 78
e 111 135
e 111 209
e 111 275
e 111 290
e 112 105
e 112 120
e 112 225
e 112 234
e 112 277
e 113 52
e 113 53
e 113 81
e 113 121
e 113 131
e 114 148
e 114 152
e 114 179
e 114 285
e 114 288
e 115 74
e 115 123
e 115 184
e 115 248
e 115 282
e 116 22
e 116 29
e 116 84
e 116 107
e 116 286
e 117 96
e 117 166
e 117 171
e 117 231
e 117 289
e 118 12
e 118 183
e 118 249
e 118 254
e 118 274
e 119 17
e 119 121
e 119 125
e 119 162
e 119 290
e 120 106
e 120 109
e 120 138
e 120 241
e 120 270
e 121 30
e 121 46
e 121 229
e 121 241
e 121 278
e 122 30
e 122 151
e 122 156
e 122 193
e 122 265
e 123 35
e 123 76
e 123 156
e 123 157
e 123 247
e 124 27
e 124 97
e 124 105
e 124 230
e 124 239
e 125 67
e 125 78
e 125 115
e 125 194
e 125 221
e 126 20
e 126 29
e 126 142
e 126 245
e 126 260
e 127 70
e 127 183
e 127 201
e 127 233
e 127 279
e 128 7
e 128 43
e 128 63
e 128 274
e 128 284
e 129 108
e 129 157
e 129 192
e 129 264
e 129 284
e 130 128
e 130 228
e 130 273
e 130 297
e 130 300
e 131 30
e 131 36
e 131 128
e 131 132
e 131 226
e 132 38
e 132 109
e 132 118
e 132 163
e 132 265
e 133 42
e 133 54
e 133 175
e 133 207
e 133 284
e 134 60
e 134 82
e 134 125
e 134 127
e 134 195
e 135 60
e 135 102
e 135 169
e 135 249
e 135 282
e 136 11
e 136 22
e 136 40
e 136 76
e 136 85
e 137 19
e 137 48
e 137 89
e 137 169
e 137 170
e 138 28
e 138 43
e 138 48
e 138 197
e 138 253
e 139 25
e 139 35
e 139 40
e 139 135
e 139 171
e 140 100
e 140 130
e 140 143
e 140 193
e 140 268
e 141 69
e 141 91
e 141 113
e 141 246
e 141 263
e 142 79
e 142 100
e 142 113
e 142 280
e 142 289
e 143 142
e 143 146
e 143 152
e 143 202
e 143 204
e 144 38
e 144 73
e 144 138
e 144 279
e 144 287
e 145 40
e 145 165
e 145 199
e 145 293
e 145 297
e 146 41
e 146 169
e 146 175
e 146 227
e 146 262
e 147 26
e 147 51
e 147 53
e 147 97
e 147 203
e 148 46
e 148 48
e 148 166
e 148 182
e 148 219
e 149 87
e 149 180
e 149 216
e 149 243
e 149 295
e 150 73
e 150 107
e 150 186
e 150 214
e 150 216
e 151 10
e 151 117
e 151 139
e 151 177
e 151 223
e 152 14
e 152 189
e 152 211
e 152 285
e 152 289
e 153 26
e 153 76
e 153 230
e 153 234
e 153 267
e 154 37
e 154 53
e 154 98
e 154 252
e 154 293
e 155 23
e 155 90
e 155 149
e 155 188
e 155 278
e 156 66
e 156 121
e 156 215
e 156 248
e 156 259
e 157 62
e 157 70
e 157 207
e 157 261
e 157 298
e 158 67
e 158 144
e 158 255
e 158 283
e 158 284
e 159 129
e 159 152
e 159 169
e 159 211
e 159 218
e 160 26
e 160 93
e 160 205
e 160 232
e 160 276
e 161 2
e 161 51
e 161 135
e 161 205
e 161 281
e 162 2
e 162 18
e 162 69
e 162 106
e 162 158
e 163 7
e 163 30
e 163 31
e 163 82
e 163 233
e 164 53
e 164 72
e 164 121
e 164 173
e 164 245
e 165 11
e 165 116
e 165 154
e 165 191
e 165 205
e 166 24
e 166 152
e 166 188
e 166 203
e 166 226
e 167 20
e 167 23
e 167 77
e 167 98
e 167 169
e 168 73
e 168 224
e 168 242
e 168 246
e 168 277
e 169 25
e 169 31
e 169 177
e 169 256
e 169 296
e 170 50
e 170 80
e 170 142
e 170 188
e 170 234
e 171 18
e 171 96
e 171 110
e 171 166
e 171 194
e 172 106
e 172 138
e 172 218
e 172 228
e 172 246
e 173 10
e 173 28
e 173 33
e 173 82
e 173 230
e 174 5
e 174 82
e 174 228
e 174 236
e 174 269
e 175 2
e 175 43
e 175 119
e 175 191
e 175 255
e 176 120
e 176 220
e 176 231
e 176 238
e 176 248
e 177 2
e 177 96
e 177 178
e 177 262
e 177 295
e 178 112
e 178 135
e 178 176
e 178 189
e 178 196
e 179 31
e 179 37
e 179 61
e 179 152
e 179 244
e 180 41
e 180 142
e 180 203
e 180 258
e 180 276
e 181 91
e 181 107
e 181 121
e 181 125
e 181 236
e 182 112
e 182 123
e 182 171
e 182 258
e 182 282
e 183 160
e 183 178
e 183 221
e 183 224
e 183 260
e 184 5
e 184 79
e 184 97
e 184 195
e 184 259
e 185 59
e 185 101
e 185 126
e 185 137
e 185 196
e 186 6
e 186 23
e 186 28
e 186 103
e 186 118
e 187 9
e 187 116
e 187 127
e 187 148
e 187 174
e 188 86
e 188 158
e 188 211
e 188 214
e 188 264
e 189 146
e 189 163
e 189 211
e 189 294
e 189 300
e 190 61
e 190 69
e 190 144
e 190 168
e 190 246
e 191 46
e 191 68
e 191 105
e 191 179
e 191 189
e 192 14
e 192 194
e 192 210
e 192 247
e 192 253
e 193 46
e 193 63
e 193 68
e 193 98
e 193 240
e 194 63
e 194 73
e 194 120
e 194 186
e 194 240
e 195 10
e 195 19
e 195 45
e 195 85
e 195 248
e 196 96
e 196 158
e 196 234
e 196 294
e 196 294
e 197 40
e 197 56
e 197 58
e 197 124
e 197 156
e 198 52
e 198 69
e 198 101
e 198 156
e 198 277
e 199 20
e 199 96
e 199 171
e 199 184
e 199 225
e 200 41
e 200 145
e 200 229
e 200 292
e 200 300
e 201 86
e 201 111
e 201 210
e 201 213
e 201 294
e 202 41
e 202 48
e 202 113
e 202 149
e 202 209
e 203 118
e 203 126
e 203 133
e 203 148
e 203 219
e 204 6
e 204 56
e 204 61
e 204 66
e 204 171
e 205 79
e 205 99
e 205 123
e 205 184
e 205 224
e 206 4
e 206 6
e 206 52
e 206 130
e 206 191
e 207 72
e 207 102
e 207 208
e 207 280
e 207 287
e 208 132
e 208 194
e 208 210
e 208 251
e 208 280
e 209 62
e 209 125
e 209 182
e 209 241
e 209 290
e 210 109
e 210 142
e 210 153
e 210 198
e 210 293
e 211 15
e 211 119
e 211 168
e 211 289
e 211 294
e 212 41
e 212 106
e 212 107
e 212 233
e 212 282
e 213 41
e 213 119
e 213 258
e 213 290
e 213 300
e 214 17
e 214 44
e 214 51
e 214 75
e 214 263
e 215 35
e 215 38
e 215 62
e 215 116
e 215 292
e 216 8
e 216 93
e 216 97
e 216 221
e 216 285
e 217 33
e 217 86
e 217 98
e 217 207
e 217 231
e 218 36
e 218 88
e 218 174
e 218 199
e 218 215
e 219 64
e 219 69
e 219 240
e 219 255
e 219 260
e 220 46
e 220 66
e 220 110
e 220 192
e 220 228
e 221 55
e 221 106
e 221 159
e 221 202
e 221 280
e 222 70
e 222 82
e 222 149
e 222 237
e 222 276
e 223 62
e 223 68
e 223 91
e 223 171
e 223 298
e 224 90
e 224 99
e 224 188
e 224 196
e 224 220
e 225 25
e 225 48
e 225 102
e 225 123
e 225 180
e 226 14
e 226 53
e 226 67
e 226 112
e 226 122
e 227 6
e 227 121
e 227 184
e 227 274
e 227 282
e 228 39
e 228 103
e 228 196
e 228 262
e 228 296
e 229 97
e 229 108
e 229 210
e 229 241
e 229 279
e 230 22
e 230 34
e 230 125
e 230 193
e 230 215
e 231 35
e 231 154
e 231 186
e 231 213
e 231 284
e 232 51
e 232 54
e 232 176
e 232 208
e 232 274
e 233 38
e 233 85
e 233 137
e 233 162
e 233 276
e 234 10
e 234 14
e 234 59
e 234 280
e 234 289
e 235 37
e 235 42
e 235 43
e 235 52
e 235 140
e 236 4
e 236 49
e 236 244
e 236 248
e 236 251
e 237 18
e 237 79
e 237 96
e 237 117
e 237 220
e 238 158
e 238 257
e 238 262
e 238 284
e 238 293
e 239 11
e 239 22
e 239 193
e 239 269
e 239 296
e 240 72
e 240 124
e 240 209
e 240 238
e 240 289
e 241 97
e 241 140
e 241 213
e 241 254
e 241 285
e 242 1
e 242 39
e 242 158
e 242 265
e 242 267
e 243 71
e 243 94
e 243 192
e 243 201
e 243 204
e 244 70
e 244 165
e 244 200
e 244 240
e 244 299
e 245 18
e 245 49
e 245 63
e 245 137
e 245 269
e 246 19
e 246 176
e 246 230
e 246 277
e 246 294
e 247 29
e 247 50
e 247 62
e 247 238
e 247 239
e 248 22
e 248 121
e 248 231
e 248 261
e 248 267
e 249 6
e 249 70
e 249 106
e 249 170
e 249 236
e 250 28
e 250 70
e 250 255
e 250 278
e 250 280
e 251 25
e 251 94
e 251 206
e 251 235
e 251 262
e 252 5
e 252 10
e 252 23
e 252 186
e 252 253
e 253 85
e 253 124
e 253 135
e 253 146
e 253 154
e 254 85
e 254 129
e 254 155
e 254 164
e 254 191
e 255 83
e 255 184
e 255 202
e 255 213
e 255 242
e 256 15
e 256 34
e 256 110
e 256 184
e 256 191
e 257 67
e 257 120
e 257 236
e 257 260
e 257 263
e 258 74
e 258 81
e 258 98
e 258 162
e 258 294
e 259 94
e 259 99
e 259 147
e 259 229
e 259 243
e 260 4
e 260 20
e 260 24
e 260 114
e 260 173
e 261 9
e 261 92
e 261 150
e 261 154
e 261 164
e 262 17
e 262 45
e 262 98
e 262 163
e 262 272
e 263 15
e 263 183
e 263 265
e 263 282
e 263 299
e 264 77
e 264 183
e 264 257
e 264 267
e 264 279
e 265 54
e 265 127
e 265 229
e 265 268
e 265 281
e 266 100
e 266 114
e 266 246
e 266 275
e 266 276
e 267 44
e 267 68
e 267 203
e 267 270
e 267 288
e 268 87
e 268 174
e 268 216
e 268 253
e 268 273
e 269 18
e 269 54
e 269 138
e 269 276
e 269 293
e 270 42
e 270 61
e 270 215
e 270 236
e 270 289
e 271 31
e 271 108
e 271 254
e 271 284
e 271 286
e 272 64
e 272 220
e 272 250
e 272 273
e 272 295
e 273 47
e 273 83
e 273 99
e 273 183
e 273 231
e 274 126
e 274 128
e 274 144
e 274 159
e 274 257
e 275 87
e 275 95
e 275 120
e 275 171
e 275 278
e 276 45
e 276 100
e 276 113
e 276 117
e 276 138
e 277 2
e 277 52
e 277 62
e 277 109
e 277 221
e 278 15
e 278 51
e 278 56
e 278 143
e 278 237
e 279 91
e 279 122
e 279 194
e 279 226
e 279 275
e 280 20
e 280 92
e 280 93
e 280 167
e 280 238
e 281 17
e 281 31
e 281 75
e 281 254
e 281 298
e 282 41
e 282 81
e 282 170
e 282 195
e 282 241
e 283 3
e 283 71
e 283 160
e 283 192
e 283 218
e 284 34
e 284 56
e 284 133
e 284 194
e 284 205
e 285 58
e 285 68
e 285 109
e 285 115
e 285 266
e 286 20
e 286 46
e 286 98
e 286 175
e 286 181
e 287 2
e 287 84
e 287 266
e 287 266
e 287 291
e 288 63
e 288 110
e 288 132
e 288 184
e 288 185
e 289 68
e 289 146
e 289 200
e 289 212
e 289 266
e 290 149
e 290 187
e 290 190
e 290 203
e 290 206
e 291 46
e 291 95
e 291 123
e 291 171
e 291 209
e 292 2
e 292 20
e 292 102
e 292 150
e 292 236
e 293 11
e 293 139
e 293 207
e 293 253
e 293 268
e 294 13
e 294 14
e 294 24
e 294 148
e 294 202
e 295 31
e 295 140
e 295 244
e 295 260
e 295 289
e 296 58
e 296 75
e 296 102
e 296 124
e 296 172
e 297 26
e 297 40
e 297 53
e 297 126
e 297 269
e 298 119
e 298 155
e 298 193
e 298 228
e 298 297
e 299 22
e 299 79
e 299 253
e 299 254
e 299 257
e 300 25
e 300 130
e 300 172
e 300 233
e 300 249
